50
2438

807 944
949 487
811 941
148 549
383 857
759 353
509 625
269 742
118 884
188 44
554 294
440 409
532 14
573 127
777 929
67 173
955 983
671 321
200 250
677 160
680 202
501 565
689 892
528 117
922 825
216 719
579 529
320 505
995 857
402 206
940 872
860 105
992 853
536 457
892 215
1 779
396 829
491 715
169 670
529 338
717 879
380 874
662 302
95 603
688 227
664 847
494 526
430 424
507 737
164 664
